# 28315
param n := 25;
param s := 1;
set E :=  (0,7) (0,21) (1,4) (1,8) (1,17) (1,24) (2,9) (3,5) (3,7) (3,9) (4,10) (5,16) (5,18) (5,22) (6,12) (7,20) (8,16) (9,23) (10,21) (11,13) (11,23) (12,15) (14,23) (15,22) (15,23) (16,24) (17,23) (19,20) (23,24);
